
n_res = 6;
rcap = [73, 85, 445, 444, 431, 418];
rtype = [1, 1, 2, 2, 2, 2];
n_tasks = 50;
modes =  [{1, 2, 3, 4, 5, 6}, {7, 8, 9, 10, 11, 12}, {13, 14, 15, 16, 17, 18}, {19, 20, 21, 22, 23, 24}, {25, 26, 27, 28, 29, 30}, {31, 32, 33, 34, 35, 36}, {37, 38, 39, 40, 41, 42}, {43, 44, 45, 46, 47, 48}, {49, 50, 51, 52, 53, 54}, {55, 56, 57, 58, 59, 60}, {61, 62, 63, 64, 65, 66}, {67, 68, 69, 70, 71, 72}, {73, 74, 75, 76, 77, 78}, {79, 80, 81, 82, 83, 84}, {85, 86, 87, 88, 89, 90}, {91, 92, 93, 94, 95, 96}, {97, 98, 99, 100, 101, 102}, {103, 104, 105, 106, 107, 108}, {109, 110, 111, 112, 113, 114}, {115, 116, 117, 118, 119, 120}, {121, 122, 123, 124, 125, 126}, {127, 128, 129, 130, 131, 132}, {133, 134, 135, 136, 137, 138}, {139, 140, 141, 142, 143, 144}, {145, 146, 147, 148, 149, 150}, {151, 152, 153, 154, 155, 156}, {157, 158, 159, 160, 161, 162}, {163, 164, 165, 166, 167, 168}, {169, 170, 171, 172, 173, 174}, {175, 176, 177, 178, 179, 180}, {181, 182, 183, 184, 185, 186}, {187, 188, 189, 190, 191, 192}, {193, 194, 195, 196, 197, 198}, {199, 200, 201, 202, 203, 204}, {205, 206, 207, 208, 209, 210}, {211, 212, 213, 214, 215, 216}, {217, 218, 219, 220, 221, 222}, {223, 224, 225, 226, 227, 228}, {229, 230, 231, 232, 233, 234}, {235, 236, 237, 238, 239, 240}, {241, 242, 243, 244, 245, 246}, {247, 248, 249, 250, 251, 252}, {253, 254, 255, 256, 257, 258}, {259, 260, 261, 262, 263, 264}, {265, 266, 267, 268, 269, 270}, {271, 272, 273, 274, 275, 276}, {277, 278, 279, 280, 281, 282}, {283, 284, 285, 286, 287, 288}, {289, 290, 291, 292, 293, 294}, {295, 296, 297, 298, 299, 300}];
succ =  [{24, 22, 20, 11, 6}, {28, 27, 24, 23, 18, 17, 16, 15}, {30, 26, 24, 22, 20, 17, 13}, {26, 19, 16, 11}, {41, 30, 28, 26, 24, 18, 16}, {33, 28, 25, 18, 17, 15}, {41, 39, 38, 33, 31, 30, 28, 27, 25, 24, 18}, {38, 33, 27, 26, 25, 21, 18}, {31, 28, 24, 23, 21, 19}, {28, 27, 25, 21, 19, 18}, {38, 35, 31, 29, 28, 27, 23, 21}, {50, 49, 41, 39, 38, 35, 34, 33, 32, 30, 25}, {39, 38, 35, 31, 27, 25, 23}, {38, 33, 29, 27, 26, 22}, {49, 41, 39, 38, 35, 34, 30, 29, 26}, {50, 49, 39, 38, 35, 33, 31, 25}, {50, 48, 39, 38, 35, 34, 31, 29}, {50, 49, 48, 36, 35, 34, 32, 29}, {50, 49, 41, 38, 36, 32, 30}, {41, 38, 34, 33, 29}, {50, 49, 47, 37, 36, 30}, {50, 48, 41, 37, 36, 28}, {49, 48, 45, 40, 34, 32}, {49, 36, 35, 29}, {48, 46, 37, 29}, {48, 45, 40, 31}, {50, 49, 48, 47, 45, 43, 42, 40}, {47, 46, 45, 43, 42, 40}, {47, 45, 43, 42, 40}, {48, 45, 43, 42, 40}, {47, 43, 42, 36}, {47, 46, 44, 37}, {48, 45, 42, 36}, {46, 37}, {45, 43, 42}, {46, 44}, {43, 42}, {43, 42}, {45, 42}, {44}, {43}, {}, {}, {}, {}, {}, {}, {}, {}, {}];
n_opt = 300;
dur = [1, 2, 4, 6, 17, 20, 8, 10, 14, 18, 19, 20, 7, 8, 10, 12, 14, 15, 1, 5, 9, 13, 15, 16, 3, 4, 11, 12, 13, 15, 2, 7, 8, 13, 14, 18, 1, 7, 8, 11, 15, 18, 1, 3, 4, 14, 15, 18, 3, 4, 6, 7, 10, 19, 3, 5, 13, 16, 18, 19, 7, 10, 14, 16, 17, 18, 2, 3, 6, 7, 12, 18, 1, 11, 12, 13, 14, 16, 5, 12, 14, 18, 19, 20, 6, 7, 10, 11, 13, 20, 8, 9, 10, 11, 14, 16, 1, 3, 14, 16, 17, 19, 5, 6, 8, 10, 19, 20, 1, 2, 3, 4, 13, 16, 1, 2, 4, 16, 17, 19, 9, 10, 12, 17, 18, 19, 4, 5, 6, 7, 16, 20, 4, 5, 7, 9, 13, 14, 2, 6, 11, 12, 13, 16, 2, 5, 6, 8, 16, 19, 6, 7, 8, 9, 14, 18, 6, 8, 14, 16, 19, 20, 1, 6, 8, 9, 10, 13, 3, 5, 6, 7, 10, 16, 2, 5, 13, 15, 16, 19, 4, 9, 12, 15, 16, 17, 1, 2, 3, 7, 16, 20, 1, 3, 4, 11, 12, 17, 2, 12, 14, 15, 19, 20, 1, 5, 6, 11, 12, 13, 11, 13, 14, 15, 16, 20, 1, 2, 3, 8, 14, 19, 2, 3, 8, 9, 13, 19, 1, 10, 14, 15, 16, 20, 3, 4, 9, 10, 11, 12, 4, 5, 7, 8, 10, 12, 3, 4, 6, 10, 12, 17, 1, 2, 3, 4, 10, 18, 3, 6, 13, 16, 19, 20, 5, 8, 10, 11, 12, 17, 13, 14, 15, 16, 17, 18, 6, 7, 9, 14, 17, 19, 2, 3, 4, 11, 15, 20, 6, 7, 8, 11, 18, 19, 2, 5, 6, 9, 11, 13];
rreq = [|17, 16, 15, 15, 15, 14, 14, 10, 8, 6, 4, 2, 10, 9, 9, 8, 7, 6, 15, 11, 9, 6, 3, 1, 16, 12, 9, 6, 4, 2, 18, 17, 15, 14, 11, 8, 19, 19, 18, 18, 18, 17, 4, 4, 3, 2, 1, 1, 8, 6, 6, 3, 3, 1, 8, 6, 6, 5, 4, 2, 6, 5, 5, 3, 2, 2, 14, 10, 8, 7, 6, 3, 13, 9, 9, 6, 5, 1, 3, 3, 3, 3, 3, 3, 12, 9, 9, 5, 5, 1, 11, 11, 10, 10, 8, 8, 14, 14, 13, 13, 13, 12, 18, 18, 17, 16, 14, 14, 9, 9, 6, 6, 4, 3, 7, 6, 6, 5, 5, 4, 17, 14, 13, 11, 10, 8, 16, 16, 16, 16, 16, 16, 18, 15, 15, 14, 11, 10, 11, 10, 10, 9, 8, 6, 7, 7, 7, 7, 7, 7, 8, 7, 6, 6, 5, 5, 13, 11, 11, 9, 8, 6, 6, 6, 6, 6, 6, 6, 5, 5, 4, 4, 3, 2, 11, 11, 11, 11, 11, 11, 14, 12, 11, 10, 7, 7, 16, 15, 15, 14, 13, 12, 15, 11, 11, 7, 4, 2, 6, 5, 5, 5, 4, 4, 15, 14, 14, 14, 13, 13, 13, 12, 12, 9, 9, 7, 10, 9, 7, 4, 3, 1, 16, 14, 14, 12, 12, 11, 13, 12, 12, 12, 12, 12, 7, 6, 5, 5, 5, 4, 9, 9, 8, 7, 5, 5, 13, 13, 12, 11, 10, 10, 14, 12, 12, 11, 10, 8, 4, 4, 4, 3, 3, 2, 6, 6, 5, 5, 4, 3, 18, 13, 12, 11, 8, 4, 19, 18, 16, 15, 14, 12, 10, 8, 7, 7, 5, 4, 1, 1, 1, 1, 1, 1, 3, 2, 2, 2, 2, 2
 |19, 17, 14, 14, 12, 11, 18, 17, 17, 16, 16, 15, 11, 11, 11, 11, 11, 11, 18, 12, 9, 8, 3, 3, 17, 16, 15, 11, 10, 8, 13, 12, 12, 11, 10, 10, 7, 6, 6, 4, 4, 2, 9, 9, 9, 9, 8, 8, 14, 13, 13, 12, 11, 11, 13, 12, 10, 7, 5, 4, 10, 9, 8, 7, 5, 5, 11, 11, 7, 5, 3, 2, 12, 9, 8, 8, 4, 4, 14, 13, 13, 12, 12, 12, 16, 16, 14, 14, 13, 12, 19, 18, 16, 16, 15, 14, 15, 12, 12, 7, 5, 4, 7, 7, 7, 7, 6, 6, 8, 8, 8, 8, 8, 8, 13, 13, 12, 12, 11, 11, 13, 13, 13, 13, 13, 13, 17, 16, 15, 14, 13, 13, 17, 14, 11, 8, 7, 3, 8, 7, 7, 7, 6, 6, 15, 14, 14, 13, 13, 13, 17, 15, 13, 11, 7, 3, 13, 12, 11, 11, 9, 8, 16, 16, 11, 9, 8, 5, 12, 11, 10, 9, 8, 8, 12, 12, 11, 11, 11, 10, 17, 15, 14, 12, 10, 7, 16, 14, 14, 14, 12, 12, 6, 5, 4, 4, 2, 2, 18, 18, 17, 16, 15, 14, 14, 13, 13, 13, 13, 13, 12, 12, 10, 9, 9, 7, 13, 11, 11, 7, 6, 5, 5, 5, 5, 5, 5, 5, 19, 17, 14, 9, 5, 2, 20, 18, 18, 17, 16, 16, 10, 9, 9, 6, 6, 4, 2, 2, 2, 2, 2, 2, 10, 8, 8, 7, 6, 5, 19, 17, 17, 16, 15, 14, 9, 9, 9, 9, 9, 9, 15, 15, 13, 13, 11, 11, 12, 12, 10, 8, 8, 5, 6, 6, 4, 4, 3, 2, 11, 8, 6, 6, 2, 2, 11, 10, 8, 5, 4, 2
 |15, 11, 9, 8, 7, 5, 5, 4, 4, 4, 3, 3, 10, 9, 8, 5, 5, 3, 9, 7, 7, 6, 4, 4, 14, 12, 11, 9, 7, 5, 16, 14, 12, 10, 6, 2, 17, 15, 14, 14, 12, 12, 8, 7, 7, 7, 7, 7, 6, 6, 6, 5, 5, 5, 18, 18, 18, 17, 17, 16, 18, 16, 15, 11, 11, 8, 13, 11, 9, 6, 5, 4, 14, 13, 13, 12, 11, 10, 14, 11, 9, 8, 5, 5, 16, 15, 14, 13, 12, 10, 17, 16, 16, 16, 15, 15, 13, 13, 12, 11, 9, 8, 15, 14, 12, 10, 9, 7, 12, 12, 11, 9, 8, 7, 18, 15, 12, 7, 4, 4, 8, 7, 6, 5, 4, 2, 14, 13, 9, 7, 5, 3, 19, 16, 15, 12, 11, 10, 15, 12, 11, 8, 7, 5, 12, 12, 12, 12, 12, 12, 15, 14, 13, 12, 10, 9, 14, 14, 14, 14, 14, 14, 16, 15, 13, 9, 7, 7, 20, 19, 18, 17, 15, 15, 14, 14, 11, 10, 8, 7, 14, 12, 12, 10, 8, 8, 16, 12, 11, 7, 6, 2, 15, 15, 15, 14, 14, 14, 7, 7, 7, 6, 6, 5, 11, 11, 10, 10, 9, 8, 18, 15, 12, 9, 7, 5, 20, 19, 18, 16, 16, 14, 8, 7, 7, 7, 7, 7, 13, 12, 11, 10, 9, 9, 12, 10, 9, 7, 5, 4, 17, 17, 14, 13, 9, 9, 7, 7, 7, 7, 7, 7, 16, 16, 10, 7, 4, 2, 15, 13, 12, 8, 7, 5, 16, 13, 9, 8, 6, 3, 6, 5, 5, 4, 2, 2, 11, 11, 7, 5, 5, 2, 14, 14, 14, 14, 13, 13, 16, 16, 14, 13, 13, 12, 17, 15, 15, 13, 13, 11
 |17, 16, 15, 13, 10, 8, 8, 8, 8, 8, 7, 7, 15, 13, 13, 12, 11, 10, 16, 11, 8, 7, 5, 3, 17, 16, 15, 13, 12, 11, 19, 17, 16, 15, 14, 13, 16, 14, 10, 7, 3, 3, 14, 13, 12, 10, 7, 7, 2, 2, 2, 2, 2, 2, 20, 20, 20, 20, 20, 20, 3, 3, 2, 2, 1, 1, 13, 10, 7, 6, 5, 2, 16, 16, 16, 16, 16, 16, 11, 11, 8, 8, 6, 4, 18, 16, 16, 15, 13, 13, 18, 17, 13, 9, 5, 4, 13, 13, 13, 13, 13, 13, 5, 4, 3, 3, 1, 1, 4, 3, 3, 2, 1, 1, 9, 7, 6, 5, 3, 2, 20, 16, 12, 10, 5, 2, 14, 11, 11, 8, 7, 6, 17, 17, 17, 16, 16, 15, 13, 11, 11, 9, 9, 8, 18, 18, 18, 17, 17, 17, 11, 11, 11, 10, 10, 9, 17, 15, 13, 8, 4, 3, 9, 8, 8, 8, 7, 7, 10, 9, 8, 5, 3, 2, 17, 15, 12, 12, 7, 6, 18, 15, 14, 12, 11, 11, 3, 3, 3, 3, 3, 3, 7, 5, 5, 3, 2, 2, 15, 15, 15, 15, 15, 15, 8, 7, 7, 6, 5, 5, 17, 15, 12, 12, 11, 9, 7, 7, 7, 7, 7, 7, 16, 15, 15, 14, 14, 14, 6, 5, 5, 4, 4, 4, 10, 10, 10, 10, 10, 10, 9, 9, 8, 6, 5, 3, 15, 13, 11, 8, 7, 3, 13, 11, 9, 8, 5, 5, 6, 5, 4, 4, 2, 2, 18, 18, 16, 15, 14, 12, 19, 18, 18, 18, 18, 18, 20, 18, 17, 16, 13, 13, 19, 18, 17, 15, 14, 12, 14, 11, 8, 6, 6, 2, 18, 15, 12, 10, 7, 7
 |11, 10, 8, 7, 4, 3, 3, 2, 2, 1, 1, 1, 20, 17, 16, 16, 14, 13, 17, 17, 17, 16, 15, 15, 17, 16, 15, 15, 14, 13, 13, 11, 11, 9, 9, 8, 13, 9, 8, 7, 6, 4, 12, 11, 11, 11, 10, 10, 14, 12, 9, 8, 6, 2, 15, 13, 11, 8, 4, 2, 9, 9, 8, 5, 4, 2, 14, 14, 14, 13, 12, 12, 18, 17, 16, 16, 15, 15, 16, 16, 15, 13, 13, 12, 8, 6, 6, 4, 4, 2, 15, 15, 14, 12, 11, 9, 16, 14, 12, 10, 8, 7, 10, 9, 8, 7, 6, 5, 15, 14, 13, 10, 9, 7, 17, 16, 13, 9, 8, 4, 15, 14, 11, 8, 4, 2, 8, 7, 6, 5, 3, 3, 7, 6, 6, 6, 6, 6, 3, 2, 2, 2, 2, 2, 16, 16, 14, 14, 12, 10, 9, 8, 8, 5, 4, 4, 18, 16, 15, 13, 12, 9, 5, 5, 4, 3, 3, 2, 10, 9, 8, 7, 7, 6, 15, 14, 10, 10, 7, 4, 16, 14, 13, 11, 5, 4, 16, 16, 16, 15, 15, 14, 15, 15, 14, 14, 14, 13, 15, 14, 11, 8, 5, 3, 15, 14, 12, 11, 11, 10, 18, 18, 17, 17, 16, 16, 20, 16, 15, 12, 8, 7, 13, 13, 10, 9, 8, 5, 11, 10, 10, 9, 9, 9, 18, 18, 18, 17, 16, 16, 8, 7, 6, 5, 4, 3, 11, 9, 7, 5, 4, 3, 15, 13, 10, 7, 6, 5, 13, 12, 10, 8, 8, 6, 10, 9, 8, 7, 7, 6, 14, 12, 8, 7, 5, 4, 19, 15, 13, 12, 8, 7, 7, 5, 4, 4, 3, 2, 17, 15, 15, 14, 13, 12, 18, 18, 16, 16, 14, 14
 |18, 17, 16, 16, 15, 14, 10, 7, 6, 6, 4, 4, 7, 5, 5, 4, 3, 3, 11, 10, 10, 9, 8, 8, 16, 16, 14, 13, 13, 12, 9, 9, 9, 9, 9, 9, 3, 3, 2, 2, 2, 1, 11, 10, 9, 7, 7, 6, 17, 15, 14, 13, 11, 10, 10, 8, 6, 5, 3, 2, 19, 18, 16, 15, 14, 14, 16, 12, 11, 10, 7, 7, 20, 17, 16, 14, 11, 10, 5, 5, 5, 4, 4, 4, 10, 10, 8, 8, 6, 6, 7, 5, 4, 4, 3, 2, 11, 11, 11, 11, 11, 11, 14, 13, 11, 8, 8, 6, 18, 17, 15, 13, 13, 11, 5, 5, 3, 2, 2, 1, 18, 16, 10, 10, 5, 2, 18, 16, 12, 9, 8, 5, 14, 13, 13, 11, 11, 10, 14, 11, 10, 9, 6, 5, 10, 9, 8, 6, 4, 4, 11, 11, 11, 11, 11, 11, 12, 11, 11, 10, 10, 10, 14, 13, 11, 10, 7, 6, 17, 15, 13, 10, 7, 6, 13, 13, 13, 13, 13, 13, 13, 12, 11, 11, 9, 9, 14, 12, 10, 9, 8, 8, 12, 11, 11, 10, 10, 9, 15, 13, 12, 10, 7, 7, 12, 9, 9, 8, 7, 6, 13, 10, 10, 8, 6, 6, 19, 15, 11, 7, 5, 3, 17, 16, 14, 11, 8, 3, 12, 11, 11, 10, 10, 10, 18, 17, 16, 15, 13, 11, 18, 16, 15, 13, 12, 11, 10, 8, 8, 7, 6, 6, 10, 9, 8, 8, 7, 5, 6, 5, 4, 4, 3, 2, 1, 1, 1, 1, 1, 1, 18, 17, 17, 16, 16, 15, 5, 4, 3, 3, 2, 1, 20, 19, 19, 18, 18, 17, 4, 3, 3, 2, 2, 2, 12, 11, 9, 8, 7, 4|];